(declare-fun temp70_1 () (_ BitVec 64))
(declare-fun temp70_2 () (_ BitVec 64))
(declare-fun var66241 () (_ BitVec 64))
(declare-fun k!0 () Bool)
(declare-fun ARGNAME_weight_NAMEEND_DIM () (_ BitVec 64))
(declare-fun temp70_3 () (_ BitVec 64))
(declare-fun var65799 () (_ BitVec 64))
(declare-fun temp70_4 () (_ BitVec 64))
(declare-fun temp70_5 () (_ BitVec 64))
(declare-fun ARGNAME_weight_NAMEEND_DIMSIZE
             ()
             (Array (_ BitVec 64) (_ BitVec 64)))
(declare-fun temp70_6 () (_ BitVec 64))
(declare-fun temp70_7 () (_ BitVec 64))
(declare-fun temp70_8 () (_ BitVec 64))
(declare-fun temp70_9 () (_ BitVec 64))
(declare-fun temp70_10 () (_ BitVec 64))
(declare-fun temp70_11 () (_ BitVec 64))
(declare-fun temp70_12 () (_ BitVec 64))
(declare-fun temp70_13 () (_ BitVec 64))
(declare-fun temp70_14 () (_ BitVec 64))
(declare-fun temp70_15 () (_ BitVec 64))
(declare-fun temp70_16 () (_ BitVec 64))
(declare-fun temp70_17 () (_ BitVec 64))
(declare-fun temp70_18 () (_ BitVec 64))
(declare-fun temp70_19 () (_ BitVec 64))
(declare-fun temp70_20 () (_ BitVec 64))
(declare-fun temp70_21 () (_ BitVec 64))
(declare-fun temp70_22 () (_ BitVec 64))
(declare-fun temp70_23 () (_ BitVec 64))
(declare-fun temp70_24 () (_ BitVec 64))
(declare-fun var66261 () (_ BitVec 64))
(declare-fun ARGNAME_mask_NAMEEND_NUMELEMENT () (_ BitVec 64))
(declare-fun var66264 () (_ BitVec 64))
(declare-fun temp70_25 () (_ BitVec 64))
(declare-fun temp70_26 () (_ BitVec 64))
(declare-fun var66236 () (_ BitVec 64))
(declare-fun var66287 () (_ BitVec 64))
(declare-fun temp70_27 () (_ BitVec 64))
(declare-fun temp70_28 () (_ BitVec 64))
(declare-fun var197936 () (_ BitVec 64))
(declare-fun var267298 () (_ BitVec 64))
(declare-fun var332883 () (_ BitVec 64))
(declare-fun temp70_30 () (_ BitVec 64))
(declare-fun temp70_29 () (_ BitVec 64))
(declare-fun var529419 () (_ BitVec 64))
(declare-fun temp70_31 () (_ BitVec 64))
(declare-fun temp70_32 () (_ BitVec 64))
(declare-fun var594960 () (_ BitVec 64))
(declare-fun var660507 () (_ BitVec 64))
(declare-fun temp70_33 () (_ BitVec 64))
(declare-fun var132228 () (_ BitVec 64))
(declare-fun temp70_34 () (_ BitVec 64))
(declare-fun var131971 () (_ BitVec 64))
(declare-fun temp70_35 () (_ BitVec 64))
(declare-fun temp70_36 () (_ BitVec 64))
(declare-fun temp70_37 () (_ BitVec 64))
(declare-fun var132235 () (_ BitVec 64))
(declare-fun var132254 () (_ BitVec 64))
(declare-fun temp70_38 () (_ BitVec 64))
(declare-fun var132265 () (_ BitVec 64))
(declare-fun temp70_39 () (_ BitVec 64))
(declare-fun var132266 () (_ BitVec 64))
(declare-fun temp70_41 () (_ BitVec 64))
(declare-fun temp70_40 () (_ BitVec 64))
(assert (= temp70_1 #x0000000000000002))
(assert (= var66241
   (ite (= ARGNAME_weight_NAMEEND_DIM temp70_1)
        #x0000000000000001
        #x0000000000000000)))
(assert (= temp70_2 #x0000000000000001))
(assert (= var66241 temp70_2))
(assert (= temp70_3 #x0000000000000000))
(assert (= var65799 temp70_3))
(assert (= temp70_4 #x0000000000000000))
(assert (= temp70_5 temp70_4))
(assert (= temp70_6 (select ARGNAME_weight_NAMEEND_DIMSIZE temp70_5)))
(assert (= temp70_7 #x0000000000000001))
(assert (= temp70_8 temp70_7))
(assert (= temp70_9 (select ARGNAME_weight_NAMEEND_DIMSIZE temp70_8)))
(assert (= temp70_10 #x0000000000000002))
(assert (= temp70_11 temp70_10))
(assert (= temp70_12 (select ARGNAME_weight_NAMEEND_DIMSIZE temp70_11)))
(assert (= temp70_13 #x0000000000000003))
(assert (= temp70_14 temp70_13))
(assert (= temp70_15 (select ARGNAME_weight_NAMEEND_DIMSIZE temp70_14)))
(assert (= temp70_16 #x0000000000000004))
(assert (= temp70_17 temp70_16))
(assert (= temp70_18 (select ARGNAME_weight_NAMEEND_DIMSIZE temp70_17)))
(assert (= temp70_19 #x0000000000000005))
(assert (= temp70_20 temp70_19))
(assert (= temp70_21 (select ARGNAME_weight_NAMEEND_DIMSIZE temp70_20)))
(assert (= temp70_22 #x0000000000000000))
(assert (= temp70_23
   (ite (bvslt var65799 temp70_22)
        (bvadd ARGNAME_weight_NAMEEND_DIM var65799)
        var65799)))
(assert (= temp70_24 (select ARGNAME_weight_NAMEEND_DIMSIZE temp70_23)))
(assert (= var66261 temp70_24))
(assert (bvslt (ite (bvslt var65799 temp70_22)
            (bvadd ARGNAME_weight_NAMEEND_DIM var65799)
            var65799)
       ARGNAME_weight_NAMEEND_DIM))
(assert (= var66264
   (ite (= ARGNAME_mask_NAMEEND_NUMELEMENT var66261)
        #x0000000000000001
        #x0000000000000000)))
(assert (= temp70_25 #x0000000000000001))
(assert (= var66264 temp70_25))
(assert (= temp70_26 #x0000000000000003))
(assert (= var66287 (ite (= var66236 temp70_26) #x0000000000000001 #x0000000000000000)))
(assert (= temp70_27 #x0000000000000000))
(assert (= var66287 temp70_27))
(assert (= temp70_28 #x0000000000000000))
(assert (= var197936 temp70_28))
(assert (= var267298 var197936))
(assert (= var332883 var267298))
(assert (= temp70_30 #x0000000000000000))
(assert (= temp70_29 temp70_30))
(assert (= var529419
   (ite (bvslt temp70_29 ARGNAME_mask_NAMEEND_NUMELEMENT)
        #x0000000000000001
        #x0000000000000000)))
(assert (= temp70_31
   (ite (= var529419 #x0000000000000001)
        ARGNAME_mask_NAMEEND_NUMELEMENT
        temp70_29)))
(assert (= temp70_32 #x0000000000000000))
(assert (= var594960 temp70_32))
(assert (= var660507 var594960))
(assert (= temp70_33 #x0000000000000000))
(assert (= var132228 temp70_33))
(assert (= temp70_34 #x0000000000000001))
(assert (= var131971 temp70_34))
(assert (= temp70_35 #x0000000000000000))
(assert (= temp70_36
   (ite (bvslt var131971 temp70_35)
        (bvadd ARGNAME_weight_NAMEEND_DIM var131971)
        var131971)))
(assert (= temp70_37 (select ARGNAME_weight_NAMEEND_DIMSIZE temp70_36)))
(assert (= var132235 temp70_37))
(assert (bvslt (ite (bvslt var131971 temp70_35)
            (bvadd ARGNAME_weight_NAMEEND_DIM var131971)
            var131971)
       ARGNAME_weight_NAMEEND_DIM))
(assert (= var132254 var132235))
(assert (= temp70_38 #x0000000000000020))
(assert (= var132265 (bvshl var132235 temp70_38)))
(assert (= temp70_39 #x0000000000000020))
(assert (= var132266 (bvashr var132265 temp70_39)))
(assert (= temp70_41 #x0000000000000002))
(assert (= temp70_40 temp70_41))
(model-add temp70_1 () (_ BitVec 64) #x0000000000000002)
(model-add temp70_2 () (_ BitVec 64) #x0000000000000001)
(model-add var66241 () (_ BitVec 64) #x0000000000000001)
(model-del k!0)
(model-add ARGNAME_weight_NAMEEND_DIM
           ()
           (_ BitVec 64)
           (ite k!0 #x0000000000000002 (bvnot #x0000000000000002)))








